(declare-fun var0 () String)
(assert (str.in.re var0 (re.++ (re.* (re.* (str.to.re "h"))) (re.++ (re.+ (re.union (str.to.re "fff") (str.to.re "g"))) (re.++ (re.union (re.union (str.to.re "c") (str.to.re "ddd")) (re.* (str.to.re "eee"))) (re.++ (re.+ (re.+ (str.to.re "bb"))) (re.++ (re.+ (re.* (str.to.re "aaa"))) (re.++ (re.* (re.+ (str.to.re "9"))) (re.++ (re.union (re.union (str.to.re "666") (str.to.re "777")) (re.* (str.to.re "88"))) (re.++ (re.union (re.+ (str.to.re "44")) (re.+ (str.to.re "55"))) (re.++ (re.+ (re.+ (str.to.re "33"))) (re.++ (re.* (re.+ (str.to.re "222"))) (re.* (re.union (str.to.re "00") (str.to.re "11")))))))))))))))
(check-sat)